RAW/CMTX/fspd-mid/CMT13X.vrp_seed-2.out
1542.863201	86.524	120.357
