RAW/CMTX/fspd-mid/CMT13X.vrp_seed-2.sol
Route #1: 20 23 28 27 24 22 25 19 16 17
Route #2: 29 36 34 33 30 31 35 32 26 21
Route #3: 68 76 77 79 80 78 72 75 74 71 73
Route #4: 120 105 106 102 95 87 86 111 82 88
Route #5: 38 41 47 48 51 50 49 46 44 37
Route #6: 65 61 62 64 66 63 60 56 58 55
Route #7: 92 89 91 90 18 118 114 109 115 97 94 93 96
Route #8: 101 99 100 116 110 98 67 70 69 103 104 107
Route #9: 52 53 54 57 59 40 43 45 42 39
Route #10: 108 8 12 13 14 15 11 10 9 7 84 85
Route #11: 119 81 2 1 3 4 5 6 83 113 117 112
Cost 1542.863201